     Program PWSCF v.6.4 starts on 18Apr2019 at 21:54:32

     Reading input from ./LaTe3-relax.in

     Current dimensions of program PWSCF are:
     Max number of different atomic species (ntypx) = 10
     Max number of k-points (npk) =  40000
     Max angular momentum in pseudopotentials (lmaxx) =  3
     Message from routine read_upf::
     Pseudo file La.pbe-spdfn-rrkjus_psl.1.0.0.UPF has been fixed on the fly.
To avoid this message in the future, permanently fix
 your pseudo files following these instructions:
     Message from routine read_upf::
     Pseudo file Te.pbe-dn-rrkjus_psl.1.0.0.UPF has been fixed on the fly.
To avoid this message in the future, permanently fix
 your pseudo files following these instructions:
               file La.pbe-spdfn-rrkjus_psl.1.0.0.UPF: wavefunction(s)  5S 4F renormalized

     Subspace diagonalization in iterative solution of the eigenvalue problem:
     a serial algorithm will be used

     Title:
     LaTe3_mp-1078612_primitive.cif

     bravais-lattice index     =            0
     lattice parameter (alat)  =      26.0248  a.u.
     unit-cell volume          =    1803.7499 (a.u.)^3
     number of atoms/cell      =            8
     number of atomic types    =            2
     number of electrons       =       138.00
     number of Kohn-Sham states=           69
     kinetic-energy cutoff     =      60.0000  Ry
     charge density cutoff     =     480.0000  Ry
     convergence threshold     =      1.0E-07
     mixing beta               =       0.5000
     number of iterations used =            8  plain     mixing
     Exchange-correlation      = PBE ( 1  4  3  4 0 0)
     nstep                     =          400

     celldm(1)=  26.024825  celldm(2)=   0.000000  celldm(3)=   0.000000
     celldm(4)=   0.000000  celldm(5)=   0.000000  celldm(6)=   0.000000

     crystal axes: (cart. coord. in units of alat)
               a(1) = (   1.000000   0.000000   0.000000 )
               a(2) = (  -0.948040   0.318150   0.000000 )
               a(3) = (   0.000000   0.000000   0.321648 )

     reciprocal axes: (cart. coord. in units 2 pi/alat)
               b(1) = (  1.000000  2.979855  0.000000 )
               b(2) = (  0.000000  3.143173  0.000000 )
               b(3) = (  0.000000  0.000000  3.108987 )

     PseudoPot. # 1 for La read from file:
     /soft/espresso/pslibrary.1.0.0/pbe/PSEUDOPOTENTIALS/La.pbe-spdfn-rrkjus_psl.1.0.0.UPF
     MD5 check sum: 96159be751344b2bee11c762977bbd84
     Pseudo is Ultrasoft + core correction, Zval = 21.0
     Generated using "atomic" code by A. Dal Corso v.5.1
     Using radial grid of 1253 points,  8 beta functions with:
                l(1) =   0
                l(2) =   0
                l(3) =   1
                l(4) =   1
                l(5) =   2
                l(6) =   2
                l(7) =   3
                l(8) =   3
     Q(r) pseudized with 0 coefficients

     PseudoPot. # 2 for Te read from file:
     /soft/espresso/pslibrary.1.0.0/pbe/PSEUDOPOTENTIALS/Te.pbe-dn-rrkjus_psl.1.0.0.UPF
     MD5 check sum: 9d9aa100a850b8708ed88d0b32baef88
     Pseudo is Ultrasoft + core correction, Zval = 16.0
     Generated using "atomic" code by A. Dal Corso v.5.1
     Using radial grid of 1245 points,  6 beta functions with:
                l(1) =   0
                l(2) =   0
                l(3) =   1
                l(4) =   1
                l(5) =   2
                l(6) =   2
     Q(r) pseudized with 0 coefficients

     atomic species   valence    mass     pseudopotential
        La            21.00   138.90500     La( 1.00)
        Te            16.00   127.60000     Te( 1.00)

      4 Sym. Ops., with inversion, found ( 2 have fractional translation)

   Cartesian axes

     site n.     atom                  positions (alat units)
         1           La  tau(   1) = (   0.6685721   0.0541281   0.0804120  )
         2           La  tau(   2) = (  -0.6166125   0.2640218   0.2412361  )
         3           Te  tau(   3) = (  -0.8033322   0.2945164   0.0804120  )
         4           Te  tau(   4) = (   0.8552918   0.0236334   0.2412361  )
         5           Te  tau(   5) = (  -0.1201953   0.1829479   0.0804120  )
         6           Te  tau(   6) = (   0.1721549   0.1352019   0.2412361  )
         7           Te  tau(   7) = (   0.4253787   0.0938459   0.0804120  )
         8           Te  tau(   8) = (  -0.3734192   0.2243039   0.2412361  )

     number of k points=     2
                       cart. coord. in units 2pi/alat
        k(    1) = (   0.0000000   0.0000000   0.0000000), wk =   0.6666667
        k(    2) = (   0.0000000   0.0000000   1.0363289), wk =   1.3333333

     Initial potential from superposition of free atoms

     starting charge  137.98163, renormalised to  138.00000
     Starting wfcs are   98 atomic wfcs

     Self-consistent Calculation

     iteration #  1     ecut=    60.00 Ry     beta= 0.50
     Davidson diagonalization with overlap
     ethr =  1.00E-04,  avg # of iterations =  6.5

     total energy              =   -2051.16849308 Ry
     Harris-Foulkes estimate   =   -2052.33038259 Ry
     estimated scf accuracy    <       1.82138762 Ry

[...]

     End of self-consistent calculation

          k = 0.0000 0.0000 0.0000 ( 14201 PWs)   bands (ev):

   -78.8104 -78.7744 -78.6958 -78.5608 -78.5584 -78.5350 -78.4763 -78.4648
   -78.4531 -78.4030 -27.1535 -27.1531 -27.1433 -27.1433 -27.0739 -27.0738
   -27.0199 -27.0197 -27.0008 -27.0007 -26.9611 -26.9608 -26.9338 -26.9335
   -26.9083 -26.9081 -26.8177 -26.8174 -26.7846 -26.7845 -25.8204 -25.8182
   -25.7960 -25.7934 -25.7855 -25.7829 -25.7352 -25.7327 -25.7247 -25.7233
   -22.2547 -22.2517  -6.3767  -6.2939  -6.0436  -6.0339  -5.9245  -5.9145
    -2.8990  -2.7408  -0.6163   0.0007   1.1543   1.1551   5.9033   5.9201
     5.9432   6.0449   6.0640   6.7616   7.2823   8.3598   8.4897   9.1227
     9.1738   9.5782   9.6099   9.7487  11.3849

[...]

     highest occupied level (ev):    11.3849

* XDM dispersion
  a1 =     1.215300
  a2 (ang) =     2.370400
  a2 (bohr) =     4.479407

+ Volumes and moments
# All results in atomic units (Hartree,bohr)
# i        V             Vfree           M1             M2             M3
  1   3.412700E+02   3.487244E+02   1.153893E+01   3.470864E+02   1.590611E+04
  2   3.412700E+02   3.487244E+02   1.153893E+01   3.470864E+02   1.590611E+04
  3   1.545948E+02   1.582182E+02   1.128474E+01   2.100716E+02   4.624423E+03
  4   1.545948E+02   1.582182E+02   1.128474E+01   2.100716E+02   4.624423E+03
  5   1.553891E+02   1.582182E+02   1.129177E+01   2.107725E+02   4.639816E+03
  6   1.553891E+02   1.582182E+02   1.129177E+01   2.107725E+02   4.639816E+03
  7   1.558451E+02   1.582182E+02   1.045604E+01   1.907316E+02   4.104489E+03
  8   1.558451E+02   1.582182E+02   1.045604E+01   1.907316E+02   4.104489E+03

+ Dispersion coefficients
# All results in atomic units (Hartree,bohr).
# i   j      C6             C8             C10            Rc            Rvdw
  1   1   1.184972E+03   1.069305E+05   1.103681E+07   9.827593E+00   1.642288E+01
  2   1   1.184972E+03   1.069305E+05   1.103681E+07   9.827593E+00   1.642288E+01
  2   2   1.184972E+03   1.069305E+05   1.103681E+07   9.827593E+00   1.642288E+01
  3   1   3.544691E+02   2.589139E+04   2.101406E+06   8.776744E+00   1.514578E+01
  3   2   3.544691E+02   2.589139E+04   2.101406E+06   8.776744E+00   1.514578E+01
  3   3   2.046252E+02   1.142763E+04   6.332411E+05   7.458527E+00   1.354375E+01
  4   1   3.544691E+02   2.589139E+04   2.101406E+06   8.776744E+00   1.514578E+01
  4   2   3.544691E+02   2.589139E+04   2.101406E+06   8.776744E+00   1.514578E+01
  4   3   2.046252E+02   1.142763E+04   6.332411E+05   7.458527E+00   1.354375E+01
  4   4   2.046252E+02   1.142763E+04   6.332411E+05   7.458527E+00   1.354375E+01
  5   1   3.560448E+02   2.603344E+04   2.113807E+06   8.779899E+00   1.514962E+01
  5   2   3.560448E+02   2.603344E+04   2.113807E+06   8.779899E+00   1.514962E+01
  5   3   2.052136E+02   1.147603E+04   6.363269E+05   7.462240E+00   1.354827E+01
  5   4   2.052136E+02   1.147603E+04   6.363269E+05   7.462240E+00   1.354827E+01
  5   5   2.058048E+02   1.152467E+04   6.394307E+05   7.465954E+00   1.355278E+01
  6   1   3.560448E+02   2.603344E+04   2.113807E+06   8.779899E+00   1.514962E+01
  6   2   3.560448E+02   2.603344E+04   2.113807E+06   8.779899E+00   1.514962E+01
  6   3   2.052136E+02   1.147603E+04   6.363269E+05   7.462240E+00   1.354827E+01
  6   4   2.052136E+02   1.147603E+04   6.363269E+05   7.462240E+00   1.354827E+01
  6   5   2.058048E+02   1.152467E+04   6.394307E+05   7.465954E+00   1.355278E+01
  6   6   2.058048E+02   1.152467E+04   6.394307E+05   7.465954E+00   1.355278E+01
  7   1   3.525915E+02   2.555630E+04   2.061441E+06   8.746378E+00   1.510888E+01
  7   2   3.525915E+02   2.555630E+04   2.061441E+06   8.746378E+00   1.510888E+01
  7   3   1.975879E+02   1.092369E+04   5.988656E+05   7.419812E+00   1.349670E+01
  7   4   1.975879E+02   1.092369E+04   5.988656E+05   7.419812E+00   1.349670E+01
  7   5   1.981748E+02   1.097115E+04   6.018504E+05   7.423535E+00   1.350123E+01
  7   6   1.981748E+02   1.097115E+04   6.018504E+05   7.423535E+00   1.350123E+01
  7   7   1.911319E+02   1.045947E+04   5.672249E+05   7.380848E+00   1.344935E+01
  8   1   3.525915E+02   2.555630E+04   2.061441E+06   8.746378E+00   1.510888E+01
  8   2   3.525915E+02   2.555630E+04   2.061441E+06   8.746378E+00   1.510888E+01
  8   3   1.975879E+02   1.092369E+04   5.988656E+05   7.419812E+00   1.349670E+01
  8   4   1.975879E+02   1.092369E+04   5.988656E+05   7.419812E+00   1.349670E+01
  8   5   1.981748E+02   1.097115E+04   6.018504E+05   7.423535E+00   1.350123E+01
  8   6   1.981748E+02   1.097115E+04   6.018504E+05   7.423535E+00   1.350123E+01
  8   7   1.911319E+02   1.045947E+04   5.672249E+05   7.380848E+00   1.344935E+01
  8   8   1.911319E+02   1.045947E+04   5.672249E+05   7.380848E+00   1.344935E+01

+ van der Waals energies, forces and stresses (Ry,bohr)
  Evdw(total,Ry)   =  -3.093962612908E-02
  Evdw(C6,Ry)      =  -2.320487110670E-02
  Evdw(C8,Ry)      =  -5.917068919796E-03
  Evdw(C10,Ry)     =  -1.817686102593E-03
  Fvdw (001,Ry/bohr) =  -1.328414340360E-05   2.169538422711E-06  -7.531707565167E-21
  Fvdw (002,Ry/bohr) =   1.328414340360E-05  -2.169538422711E-06   1.234952789447E-20
  Fvdw (003,Ry/bohr) =  -3.258568381363E-06   5.321825496473E-07  -1.478548022889E-20
  Fvdw (004,Ry/bohr) =   3.258568381362E-06  -5.321825496470E-07   5.683566542678E-21
  Fvdw (005,Ry/bohr) =   1.636809455526E-06  -2.673202852863E-07  -7.173215921135E-21
  Fvdw (006,Ry/bohr) =  -1.636809455526E-06   2.673202852860E-07   1.462232906171E-20
  Fvdw (007,Ry/bohr) =   1.288136670639E-05  -2.103757777783E-06  -1.034971918456E-20
  Fvdw (008,Ry/bohr) =  -1.288136670639E-05   2.103757777783E-06   3.265680747338E-20
  sigma_vdw (Ry/bohr**3) =  -1.715612102637E-05  -4.461880870346E-08  -4.768475047011E-23
                            -4.461880870346E-08  -1.742203616844E-05   4.572463419667E-23
                            -4.768475047011E-23   4.572463419667E-23  -1.744147251397E-05
  sigma_vdw (GPa) =  -2.523752110334E-01  -6.563652264568E-04  -7.014667793768E-19
                     -6.563652264568E-04  -2.562869571673E-01   6.726324783481E-19
                     -7.014667793768E-19   6.726324783481E-19  -2.565728756332E-01

!    total energy              =   -2052.19738658 Ry
     Harris-Foulkes estimate   =   -2052.19738663 Ry
     estimated scf accuracy    <       0.00000007 Ry

     The total energy is the sum of the following terms:

     one-electron contribution =   -1190.33594286 Ry
     hartree contribution      =     620.08574032 Ry
     xc contribution           =    -400.80199800 Ry
     ewald contribution        =   -1081.11424640 Ry
     Dispersion XDM Correction =      -0.03093963 Ry

     convergence has been achieved in  13 iterations

     Forces acting on atoms (cartesian axes, Ry/au):

     atom    1 type  1   force =    -0.02018391    0.00329639    0.00000000
     atom    2 type  1   force =     0.02018391   -0.00329639    0.00000000
     atom    3 type  2   force =     0.01593487   -0.00260245    0.00000000
     atom    4 type  2   force =    -0.01593487    0.00260245    0.00000000
     atom    5 type  2   force =     0.00745157   -0.00121698    0.00000000
     atom    6 type  2   force =    -0.00745157    0.00121698    0.00000000
     atom    7 type  2   force =    -0.02334951    0.00381339    0.00000000
     atom    8 type  2   force =     0.02334951   -0.00381339    0.00000000

     Total force =     0.050906     Total SCF correction =     0.001894

     Computing stress (Cartesian axis) and pressure

          total   stress  (Ry/bohr**3)                   (kbar)     P=-3848.15
  -0.02666671   0.00027365   0.00000000      -3922.81     40.26      0.00
   0.00027365  -0.02503584   0.00000000         40.26  -3682.90      0.00
   0.00000000   0.00000000  -0.02677499          0.00      0.00  -3938.74

     BFGS Geometry Optimization

     number of scf cycles    =   1
     number of bfgs steps    =   0

     energy   new            =   -2052.1973865766 Ry

     new trust radius        =       0.0236588564 bohr
     new conv_thr            =       0.0000001000 Ry

ATOMIC_POSITIONS (crystal)
La       0.829467875   0.170532125   0.250000000
La       0.170532125   0.829467875   0.750000000
Te       0.074598313   0.925401687   0.250000000
Te       0.925401687   0.074598313   0.750000000
Te       0.425109981   0.574890019   0.250000000
Te       0.574890019   0.425109981   0.750000000
Te       0.704565434   0.295434566   0.250000000
Te       0.295434566   0.704565434   0.750000000

     NEW-OLD atomic charge density approx. for the potential

[...]

     energy   old            =   -2052.1973865766 Ry
     energy   new            =   -2052.1999386425 Ry

     CASE: energy  _new < energy  _old

     WARNING: bfgs curvature condition failed, Theta= 0.835
     new trust radius        =       0.0260247420 bohr
     new conv_thr            =       0.0000000220 Ry

[...]

     Threshold (ethr) on eigenvalues was too large:
     Diagonalizing with lowered threshold

     Davidson diagonalization with overlap
     ethr =  3.93E-08,  avg # of iterations =  5.0

[...]

     WARNING: bfgs curvature condition failed, Theta= 0.904
     new trust radius        =       0.0037406910 bohr
     new conv_thr            =       0.0000000010 Ry

[...]

     Threshold (ethr) on eigenvalues was too large:
     Diagonalizing with lowered threshold

     Davidson diagonalization with overlap
     ethr =  3.86E-08,  avg # of iterations =  4.5

[...]

     number of scf cycles    =  26
     number of bfgs steps    =  25

     energy   old            =   -2052.2360585985 Ry
     energy   new            =   -2052.2361068538 Ry

     CASE: energy  _new < energy  _old

     new trust radius        =       0.0113823417 bohr
     new conv_thr            =       0.0000000010 Ry

ATOMIC_POSITIONS (crystal)
La       0.819888572   0.180111428   0.250000000
La       0.180111428   0.819888572   0.750000000
Te       0.087106124   0.912893876   0.250000000
Te       0.912893876   0.087106124   0.750000000
Te       0.427106848   0.572893152   0.250000000
Te       0.572893152   0.427106848   0.750000000
Te       0.699688004   0.300311996   0.250000000
Te       0.300311996   0.699688004   0.750000000

     NEW-OLD atomic charge density approx. for the potential

     Self-consistent Calculation

[...]

     total energy              =   -2052.20518240 Ry
     Harris-Foulkes estimate   =   -2052.20518240 Ry
     estimated scf accuracy    <          1.0E-09 Ry

     iteration # 10     ecut=    60.00 Ry     beta= 0.50
     Davidson diagonalization with overlap
     ethr =  7.54E-13,  avg # of iterations =  3.0

     End of self-consistent calculation

[...]

          k = 0.0000 0.0000 1.0363 ( 14158 PWs)   bands (ev):

   -78.6071 -78.6036 -78.5916 -78.5145 -78.5088 -78.4962 -78.4918 -78.3958
   -78.3699 -78.3543 -26.9883 -26.9883 -26.9844 -26.9842 -26.9508 -26.9506
   -26.9179 -26.9178 -26.9018 -26.9017 -26.8833 -26.8831 -26.8646 -26.8645
   -26.8210 -26.8205 -26.7336 -26.7334 -26.7157 -26.7152 -25.8937 -25.8925
   -25.8731 -25.8722 -25.8682 -25.8671 -25.8530 -25.8523 -25.8325 -25.8320
   -22.3033 -22.2990  -6.4554  -6.4525  -6.3166  -6.2554  -5.9841  -5.9713
    -2.0376  -1.9491  -0.2374  -0.2142  -0.1448   0.0422   6.2713   6.4084
     6.8179   7.0282   7.1068   7.1930   7.3751   7.6259   7.7295   7.9857
     8.4193   8.5761   8.8655   9.3458   9.7416

     highest occupied level (ev):    11.0986

* XDM dispersion
  a1 =     1.215300
  a2 (ang) =     2.370400
  a2 (bohr) =     4.479407

+ van der Waals energies, forces and stresses (Ry,bohr)
  Evdw(total,Ry)   =  -3.094631217673E-02
  Evdw(C6,Ry)      =  -2.320791777467E-02
  Evdw(C8,Ry)      =  -5.918940994227E-03
  Evdw(C10,Ry)     =  -1.819453407833E-03
  Fvdw (001,Ry/bohr) =  -2.393400225778E-05   3.908851021064E-06  -5.753254262087E-20
  Fvdw (002,Ry/bohr) =   2.393400225778E-05  -3.908851021064E-06  -2.209298334846E-20
  Fvdw (003,Ry/bohr) =  -5.146686072476E-08   8.405459666867E-09   1.617852444423E-20
  Fvdw (004,Ry/bohr) =   5.146686072430E-08  -8.405459665307E-09   5.174791841415E-21
  Fvdw (005,Ry/bohr) =  -2.482968402302E-06   4.055131887257E-07  -1.689951663544E-20
  Fvdw (006,Ry/bohr) =   2.482968402301E-06  -4.055131887263E-07  -3.113618275564E-21
  Fvdw (007,Ry/bohr) =   2.338646156878E-05  -3.819427824794E-06  -2.126521148532E-20
  Fvdw (008,Ry/bohr) =  -2.338646156878E-05   3.819427824794E-06   1.414116725583E-20
  sigma_vdw (Ry/bohr**3) =  -1.694096186670E-05  -8.030685150242E-08  -2.642076229964E-23
                            -8.030685150242E-08  -1.741956737965E-05  -4.950930675487E-23
                            -2.642076229964E-23  -4.950930675487E-23  -1.741159753349E-05
  sigma_vdw (GPa) =  -2.492101110527E-01  -1.181354372833E-03  -3.886627665301E-19
                     -1.181354372833E-03  -2.562506400364E-01  -7.283069244598E-19
                     -3.886627665301E-19  -7.283069244598E-19  -2.561333995713E-01

!    total energy              =   -2052.23612871 Ry
     Harris-Foulkes estimate   =   -2052.23612871 Ry
     estimated scf accuracy    <          2.9E-10 Ry

     The total energy is the sum of the following terms:

     one-electron contribution =   -1274.86199386 Ry
     hartree contribution      =     662.40480681 Ry
     xc contribution           =    -400.90632015 Ry
     ewald contribution        =   -1038.84167519 Ry
     Dispersion XDM Correction =      -0.03094631 Ry

     convergence has been achieved in  10 iterations

     Forces acting on atoms (cartesian axes, Ry/au):

     atom    1 type  1   force =     0.00051187   -0.00008360    0.00000000
     atom    2 type  1   force =    -0.00051187    0.00008360    0.00000000
     atom    3 type  2   force =     0.00024536   -0.00004007    0.00000000
     atom    4 type  2   force =    -0.00024536    0.00004007    0.00000000
     atom    5 type  2   force =     0.00018904   -0.00003087    0.00000000
     atom    6 type  2   force =    -0.00018904    0.00003087    0.00000000
     atom    7 type  2   force =     0.00023703   -0.00003871    0.00000000
     atom    8 type  2   force =    -0.00023703    0.00003871    0.00000000

     Total force =     0.000922     Total SCF correction =     0.000016

     Computing stress (Cartesian axis) and pressure

          total   stress  (Ry/bohr**3)                   (kbar)     P=-3838.28
  -0.02651132   0.00025892   0.00000000      -3899.95     38.09      0.00
   0.00025892  -0.02496826   0.00000000         38.09  -3672.96      0.00
   0.00000000   0.00000000  -0.02679664          0.00      0.00  -3941.92

     bfgs converged in  27 scf cycles and  26 bfgs steps
     (criteria: energy <  1.0E-04 Ry, force <  1.0E-03 Ry/Bohr)

     End of BFGS Geometry Optimization

     Final energy   =   -2052.2361287085 Ry
Begin final coordinates

ATOMIC_POSITIONS (crystal)
La       0.819888572   0.180111428   0.250000000
La       0.180111428   0.819888572   0.750000000
Te       0.087106124   0.912893876   0.250000000
Te       0.912893876   0.087106124   0.750000000
Te       0.427106848   0.572893152   0.250000000
Te       0.572893152   0.427106848   0.750000000
Te       0.699688004   0.300311996   0.250000000
Te       0.300311996   0.699688004   0.750000000
End final coordinates

     General routines

     Parallel routines

   This run was terminated on:  23:58:35  18Apr2019

   JOB DONE.